NAME : rnd16_50.tsp
TYPE : TSP
DIMENSION : 50
EDGE_WEIGHT_TYPE : EUC_2D
NODE_COORD_SECTION
1 595 626
2 846 690
3 940 557
4 633 141
5 991 396
6 803 841
7 634 13
8 654 875
9 904 336
10 334 58
11 113 398
12 413 708
13 22 296
14 431 571
15 150 496
16 740 959
17 20 438
18 797 780
19 510 811
20 180 912
21 456 152
22 729 911
23 958 870
24 752 822
25 520 724
26 970 516
27 415 657
28 652 348
29 662 823
30 872 328
31 607 204
32 200 328
33 574 283
34 714 718
35 456 524
36 219 218
37 224 398
38 72 896
39 425 364
40 432 503
41 57 985
42 53 211
43 144 919
44 49 257
45 521 132
46 795 549
47 38 165
48 999 536
49 421 144
50 692 920
